c 2 Base
c 3 Persistence
c 4 IO
c 5 OldIO
c 6 NewIO
c 7 NIOBase
c 8 NIOType
c 9 ChunkedNIO
c 10 SingleWriteNIO
c 11 DirectNIO
c 12 LogSize
c 13 S100MiB
c 14 S1MiB
c 15 Checksum
c 16 BTreeFeatures
c 17 INCompressor
c 18 IEvictor
c 19 Evictor
c 20 Critical_Eviction
c 21 Verifier
c 22 ITracing
c 23 Tracing
c 24 TracingLevel
c 25 Severe
c 26 Finest
c 27 Statistics
p cnf 26 12
2 0
3 0
5 6 0
-6 -5 0
9 10 0
-10 -9 0
13 14 0
-14 -13 0
16 0
-21 17 0
25 26 0
-26 -25 0